106
150
120	4
119	9
118	7
117	12
116	11
115	7
114	13
113	13
112	15
111	10
110	7
109	2
108	8
107	15
106	13
105	11
104	5
103	6
102	5
101	13
100	13
99	9
98	11
97	7
96	10
95	10
94	8
93	9
92	7
91	10
90	10
89	6
88	11
87	5
86	9
85	10
84	10
83	11
82	13
81	7
80	12
79	11
78	8
77	8
76	5
75	14
74	7
73	10
72	9
71	13
70	15
69	9
68	11
67	11
66	3
65	5
64	11
63	13
62	5
61	9
60	9
59	7
58	9
57	12
56	10
55	9
54	17
53	12
52	7
51	8
50	8
49	6
48	9
47	9
46	12
45	6
44	11
43	9
42	12
41	12
40	11
39	6
38	15
37	9
36	11
35	5
34	9
33	10
32	8
31	8
30	11
29	10
28	10
27	15
26	10
25	11
24	7
23	12
22	10
21	11
20	8
19	6
18	6
17	6
16	11
15	9
